Data path: /scratch/opt/lxu/CFLG/benchmarks/Kgroup_A
Instance: K100.9.red
Result path: /scratch/opt/lxu/CFLG/results/Kgroup_A
Solver: Gurobi
Time limit: 7200
Formulation: LEFPA
Cover: Large
julia --project=. src/main.jl /scratch/opt/lxu/CFLG/benchmarks/Kgroup_A K100.9.red /scratch/opt/lxu/CFLG/results/Kgroup_A Gurobi 7200 LEFPA Large
The latest version of Julia in the `release` channel is 1.11.5+0.x64.linux.gnu. You currently have `1.11.4+0.x64.linux.gnu` installed. Run:

  juliaup update

in your terminal shell to install Julia 1.11.5+0.x64.linux.gnu and update the `release` channel to that version.
/scratch/opt/lxu/CFLG/benchmarks/Kgroup_A Gurobi 7200.0 /scratch/opt/lxu/CFLG/results/Kgroup_A K100.9.red LEFPA Large
/scratch/opt/lxu/CFLG/benchmarks/Kgroup_A/K100.9.red

 read graph
data loaded


after absorb:21 22

max_piece:4
problem_graph/original graph: node: 30/22 edge: 78/70 dlt: 0.5840503453289713 break_avg_len: 0.2620738729040255 break_max_len: 0.584049761278626Vbar/V, Ebar/E(30, 30, 78, 78)
Set parameter TokenServer to value "solice01.zib.de"
Set parameter Threads to value 1
Set parameter OutputFlag to value 1
Gurobi Optimizer version 12.0.1 build v12.0.1rc0 (linux64 - "Debian GNU/Linux 12 (bookworm)")

CPU model: Intel(R) Xeon(R) Gold 5222 CPU @ 3.80GHz, instruction set [SSE2|AVX|AVX2|AVX512]
Thread count: 8 physical cores, 16 logical processors, using up to 1 threads

Non-default parameters:
Threads  1

Optimize a model with 108 rows, 234 columns and 390 nonzeros
Model fingerprint: 0xdde997dd
Coefficient statistics:
  Matrix range     [1e+00, 1e+00]
  Objective range  [1e+00, 1e+00]
  Bounds range     [1e+00, 1e+00]
  RHS range        [0e+00, 0e+00]
Presolve removed 108 rows and 234 columns
Presolve time: 0.00s
Presolve: All rows and columns removed
Iteration    Objective       Primal Inf.    Dual Inf.      Time
       0   -0.0000000e+00   0.000000e+00   0.000000e+00      0s

Solved in 0 iterations and 0.00 seconds (0.00 work units)
Optimal objective -0.000000000e+00

User-callback calls 35, time in user-callback 0.00 sec
elapsed CPU time: 1.038665 seconds
Set parameter TokenServer to value "solice01.zib.de"
Set parameter Threads to value 1
Set parameter OutputFlag to value 1
Set parameter MIPGap to value 0.0001
Set parameter MIPGapAbs to value 0.999998
Set parameter TimeLimit to value 7198.961335

 more cuts: false 0.5840503453289713 false
is_attach:trueformulation:LEFPA0 78 0

 model loaded

Gurobi Optimizer version 12.0.1 build v12.0.1rc0 (linux64 - "Debian GNU/Linux 12 (bookworm)")

CPU model: Intel(R) Xeon(R) Gold 5222 CPU @ 3.80GHz, instruction set [SSE2|AVX|AVX2|AVX512]
Thread count: 8 physical cores, 16 logical processors, using up to 1 threads

Non-default parameters:
TimeLimit  7198.961335
MIPGapAbs  0.999998
Threads  1

Optimize a model with 5200 rows, 2631 columns and 15276 nonzeros
Model fingerprint: 0x44007fb3
Variable types: 186 continuous, 2445 integer (2445 binary)
Coefficient statistics:
  Matrix range     [1e-06, 1e+00]
  Objective range  [1e+00, 1e+00]
  Bounds range     [2e-02, 6e-01]
  RHS range        [2e-02, 1e+00]
Found heuristic solution: objective 23.0000000
Presolve removed 1240 rows and 257 columns
Presolve time: 0.04s
Presolved: 3960 rows, 2374 columns, 13112 nonzeros
Variable types: 108 continuous, 2266 integer (2266 binary)

Root relaxation: objective 8.108737e-01, 1487 iterations, 0.03 seconds (0.05 work units)

    Nodes    |    Current Node    |     Objective Bounds      |     Work
 Expl Unexpl |  Obj  Depth IntInf | Incumbent    BestBd   Gap | It/Node Time

     0     0    0.81087    0  106   23.00000    0.81087  96.5%     -    0s
H    0     0                      11.0000000    0.81087  92.6%     -    0s
H    0     0                       9.0000000    0.81087  91.0%     -    0s
     0     0    1.48399    0  243    9.00000    1.48399  83.5%     -    0s
H    0     0                       8.0000000    1.49925  81.3%     -    0s
H    0     0                       7.0000000    1.49925  78.6%     -    0s
H    0     0                       6.0000000    1.49925  75.0%     -    0s
H    0     0                       4.0000000    1.49925  62.5%     -    0s
     0     0    1.49925    0  234    4.00000    1.49925  62.5%     -    0s
     0     0    1.49925    0  244    4.00000    1.49925  62.5%     -    0s
     0     0    1.49925    0  245    4.00000    1.49925  62.5%     -    0s
     0     0    1.80548    0  205    4.00000    1.80548  54.9%     -    0s
     0     0    1.85185    0  181    4.00000    1.85185  53.7%     -    0s
     0     0    1.85321    0  175    4.00000    1.85321  53.7%     -    0s
     0     0    1.85321    0  152    4.00000    1.85321  53.7%     -    0s
     0     0    2.00000    0  123    4.00000    2.00000  50.0%     -    0s
H    0     0                       3.0000000    2.00000  33.3%     -    0s
     0     0    2.00000    0  193    3.00000    2.00000  33.3%     -    0s
     0     0    2.00000    0  177    3.00000    2.00000  33.3%     -    0s
     0     0    2.00000    0  103    3.00000    2.00000  33.3%     -    0s

Cutting planes:
  Learned: 11
  Gomory: 1
  Cover: 19
  Implied bound: 2
  MIR: 10
  GUB cover: 1
  RLT: 8
  Relax-and-lift: 5
  BQP: 2
  PSD: 2

Explored 1 nodes (5848 simplex iterations) in 0.61 seconds (0.62 work units)
Thread count was 1 (of 16 available processors)

Solution count 8: 3 4 6 ... 23

Optimal solution found (tolerance 1.00e-04)
Best objective 3.000000000000e+00, best bound 3.000000000000e+00, gap 0.0000%

User-callback calls 638, time in user-callback 0.00 sec

 sepatime0 0 0
3.0Stat(MathOptInterface.OPTIMAL, 3.0, 3.0, 0.0, 0.0, 1.038665, 0.6089599132537842, 1, Main.CFLG.LEFPA, "", #undef)
